M+/Instances/S1-10-M+/S1-15-10-3-l-M+.txt
     100      10    0.15
       2       2       3       3       2       3       1       2       2       3       5      12       4       0       2      11       5       5       7       9       5
       3       2       3       3       1       1       3       2       2       2      13       4       5       7       9      11       3       3      14      12       7
       3       3       1       2       1       1       2       2       1       3      13       4       9       1       8      12      14       3       7       6       6
       3       2       2       1       3       3       1       2       3       2      11       4       9       8      15       6       8      12      16      10       4
       3       2       1       2       2       3       2       1       1       3       2      11       3       3      16      13       8       8      15      16       5
       3       3       1       3       2       1       2       3       3       1       0       3       6       7      13      16      14       4       3      12       4
       3       1       1       2       3       1       3       1       1       1      15       3      13       1       4      13       7       9       9       7       7
       1       2       1       1       3       2       3       3       1       2       7       3      13       9      13      10       5      12       5       1       5
       1       3       3       3       3       2       2       1       2       2       8      15       3      15       2       8       1      14       6       7       5
       1       3       3       3       3       1       2       2       3       1       2       9       8      14       7      16      10       8      10       7       6
       2       3       1       3       1       2       1       3       3       2       7      14       0       0       5       8       8      12       4      14       6
       2       2       2       2       1       2       1       3       1       3       2      11      13       2       4       7       6      15      12       7       6
       1       2       3       1       2       1       1       2       3       2       9       4       9       6      12       3      16       0       1      12       4
       3       1       3       3       1       2       2       3       1       3       5       1       7       8       2      12       6       8       3       3       4
       2       3       2       3       2       1       1       1       1       1      15      11       2      12      12      11      16       2      12       4       7
       2       3       3       3       3       1       2       2       2       3       0       0      10      11       3       7      16      13      16      15       4
       2       2       3       3       2       1       2       2       3       3       3       9       6      11      13      10       1       1       5       6       6
       1       1       1       1       3       2       2       1       3       2       8      13      11       8      13      13      15       8      12      14       6
       1       1       1       1       1       1       1       1       1       2       7       5       5       6       4       5      11      15      11       9       7
       3       2       3       2       1       2       2       1       1       2      13       7      16       8       9       5      10       8      12       6       6
       2       3       3       1       2       3       2       1       2       1      12       5       8      14       8       1      15      12       4      16       6
       2       1       3       2       1       3       2       2       3       2       2      15       3      15       9       9      11       9       1      10       5
       3       2       1       3       1       2       2       2       3       1       2      14       5      13      16       2      14       4       2       1       4
       2       1       3       3       1       1       2       2       3       3      10       7       4       8       3       6       3       0       6       6       7
       2       3       1       1       2       3       3       3       1       3       5       7       1      11       1      13      14       1      12       3       4
       3       2       1       2       1       1       1       3       3       3      15       0       4       8      15      16       5      12       2       5       7
       1       2       1       1       2       1       1       2       3       2       9       6       9      12      10       5       6       3      12      10       4
       1       2       3       3       1       1       1       3       3       3      15      15       9       8       1       4       0      15       7      13       7
       1       2       3       1       2       2       3       2       3       2       4       6       8       5       6      16       7       1       2      13       4
       2       2       2       3       3       2       1       1       1       3       6       1      10       3      14      12       5      11      11      13       6
       1       3       3       3       3       3       1       1       3       3       3      16      16       0       5       0      14      15      10       1       4
       1       1       1       1       2       3       2       1       3       3      16      10       0       8       7      12       8       2      15       0       5
       2       1       2       3       1       2       1       2       3       2      10       5       9       5      10       9       4      14       0       3       7
       1       1       1       3       2       2       3       2       2       3      15       5       0       3       5       4      14      13      16      10       5
       3       2       3       2       2       3       1       1       2       3       2       0      15      16       9      14       7       1      16       6       5
       3       2       1       3       3       3       1       1       1       1       6      14      11      15      14       0       1      11       7       1       4
       1       1       3       2       2       3       3       1       1       1       6       3       3       6       3       8       9       9       6       6       4
       3       2       3       1       2       2       3       3       1       2       4      11      12       3       2       8       6      11       3      12       4
       3       2       2       3       3       1       3       1       2       2       5      10       3       2       5      10       4      11      11      11       7
       2       1       1       2       3       3       3       1       3       1      15      10      13      16       6       3      11       4       0       2       7
       1       3       1       1       1       1       3       1       2       2       4       5       4      11      10      10       8      13      15       0       6
       1       2       2       3       3       2       3       2       2       2      14      13      10      10       8       1       1       6      12       5       4
       1       2       1       1       2       2       2       3       2       2      16       9      10       8       9      11       4       2      12       5       4
       1       3       1       3       2       2       3       1       1       3       3       2      11       9       1      13      13       6       0      14       6
       2       1       2       1       3       2       1       2       2       3       8      16       5       9      10      15      16      11      14      16       5
       3       3       3       1       3       3       2       2       3       1      10       1       6       1       1      12       2       3      11       8       5
       2       1       3       3       2       1       2       2       1       2       6       2       2       2       2       8       2       5       4      13       7
       3       1       2       1       1       2       3       3       2       1       9      14       8       4      12       9       3       5      13       3       6
       1       3       2       2       3       2       3       3       3       3      10       3       6       6      11      12      15       0       0       1       7
       3       2       2       2       2       1       2       1       1       2       2       0       8      11      13       4       2      15       1       8       6
       2       3       2       2       2       2       3       3       2       2      14       9      16       8       8       5      12       8      14       6       5
       3       1       3       3       2       2       3       2       2       1      16       4       9       7      11       2       2      12      11      16       5
       2       2       3       2       2       1       3       2       1       2       2       5       5      14       8       7      14       0      10       3       4
       1       2       1       1       1       3       1       2       3       3      11       3      12      12       6       0       3       6       3       6       5
       1       3       1       3       3       1       2       2       3       3      12       1       7      10       9       7       1      10      11      12       4
       1       3       1       1       2       2       1       3       2       2       1       2      15      12       9       8       3       3      16       6       7
       3       2       3       2       2       3       3       3       2       3       4      16       6       2      13      10      11       0      11       7       4
       1       1       2       2       1       3       1       2       1       1      12       8       0       6       5       7      12      11      13      16       5
       2       3       1       3       3       2       3       2       2       1       5       6       8      10      14       3      16       6      13       7       7
       3       3       2       1       1       3       2       2       1       2       5       1       7       4       9       8       0      15      10       8       7
       1       3       3       1       3       1       3       2       2       2      14      12      11       5      13       2      12      11       1      16       4
       2       3       3       1       1       3       3       3       3       3       6      13       8      11       8      10       1       6       2      15       5
       3       3       1       3       2       3       3       2       3       1      11       0       1       7       8      12       8      12      11       1       5
       2       3       3       3       1       1       2       1       3       1      13      13      12      16      13      13      16       3      15       9       6
       3       3       1       2       2       2       3       3       2       3       6      15       6      14      14       6       9       5      15      12       4
       2       2       1       3       3       1       1       3       3       2       4      16       2       8      15       0       0      13       9       6       7
       3       1       2       1       1       3       1       2       3       2       2       9       1       2      13       0      11       3       2       7       5
       3       1       2       2       3       2       2       1       1       2      10      13       9       8      10       2      12      11      12      10       4
       3       3       3       3       2       2       1       2       3       1      15      14       9      11       9      11      10       5      15       0       7
       1       3       1       2       2       3       1       2       2       2       4       8       1       4       5      16       4       9      13       9       4
       1       1       3       3       2       2       1       3       1       2      16      16      13      11       2      12      10       6       0       8       5
       2       3       3       2       1       3       2       3       2       2       4       3       1       1       6      10       3       2       5       4       7
       3       1       3       2       2       1       3       3       3       3      16      15      12       3       3      12      15      10      11      12       4
       2       2       3       3       3       1       1       1       1       1       1       1       6      11       2       1      14      15      14       1       4
       1       3       2       2       3       1       2       2       2       1       6       1       2       3       5      13       8       5       4      16       6
       3       1       3       3       3       3       3       2       1       3      14      11       4       8       2       8       2       5      16       2       4
       3       1       1       2       1       1       2       2       1       2      13       6      10      12      15      15      14      16      11      15       7
       2       2       1       2       3       3       1       3       2       1       3      14      14      15       2      13      12       6       9      15       4
       3       3       3       2       2       3       1       3       1       1      13      11       3      16      10      12       7       1      13       3       7
       1       3       2       3       1       1       1       1       1       1      13      16      16      16      14      14      12      12       1       8       4
       2       2       2       3       3       1       2       3       3       2       8      10       8       5       8       4       7      10      10      10       6
       2       3       2       1       2       2       3       2       3       2       6       6       8       6       1       3      10      10      12       7       7
       3       2       3       1       2       2       1       1       2       3       2       3      13      13       5      11       5       0      12      13       5
       2       2       1       2       3       1       1       1       3       1      10      15      16      11      12      15      14      11       6       7       4
       1       1       3       3       2       3       1       3       3       1      14      11      16      13      12      12       3      12      14      11       6
       3       2       1       3       1       3       3       3       3       3       7       2       4       8      10      10       8       4      10      10       7
       3       2       2       2       1       1       2       2       3       3      14       0      15      12      11       5       4      13      16       8       6
       2       2       1       1       3       1       3       2       3       2       0      15       4       5       6      13       8      11      11      13       5
       3       1       1       3       1       1       3       1       3       1       0       9      16      13      12       5      16      14      10       7       6
       2       1       1       1       3       3       1       1       2       2      13       0      11       7       9      16      12      11       9      13       5
       1       1       3       1       2       2       1       2       3       3       0      11      11      13       0      10       7      15      16       5       5
       3       2       1       2       3       1       2       1       1       2       8       4      16      16      15      11       2      13      15       0       6
       2       2       1       2       2       3       2       2       3       1      10      12       5      12       4      14       4       6      16      12       7
       1       3       3       2       3       2       1       3       1       1       9       4       3       9      11      13      12       3       9      12       7
       1       1       1       2       2       1       3       2       1       3       4       0       7      12       2       7       5       7       4       3       6
       3       1       3       1       1       1       3       1       1       2       0       8      10       3       3      11      14       7       5       7       6
       3       3       1       2       2       2       2       3       1       2      11       2       7      15       2      10      10       3       9       2       7
       1       1       2       1       2       3       1       3       1       2       7      12       6       0       4      14      15      16       0      14       4
       1       2       3       3       2       1       3       2       3       2      10      10       2       6       3      10       9       6       5       7       6
       1       2       3       3       2       2       3       1       1       3       8       6      11       1       6       4      16       5      13       6       4
      73      85      69      72      81      56      55      94      79      91
     216     216     216     216     216     108     108     108     216     216
     328     349     314     268     482     275     184     318     337     390